c Generated map
c Size: 9 * 9, weights in range: 1 to 10, walls: False, with ratio 0.0
c dim 7 of 7
c
p sp 81 144
c graph contains 81 nodes and 144 arcs
c
a 1 10 2
a 10 1 2
a 1 2 3
a 2 1 3
a 2 11 6
a 11 2 6
a 2 3 2
a 3 2 2
a 3 12 5
a 12 3 5
a 3 4 9
a 4 3 9
a 4 13 5
a 13 4 5
a 4 5 6
a 5 4 6
a 5 14 7
a 14 5 7
a 5 6 3
a 6 5 3
a 6 15 8
a 15 6 8
a 6 7 5
a 7 6 5
a 7 16 2
a 16 7 2
a 7 8 3
a 8 7 3
a 8 17 6
a 17 8 6
a 8 9 3
a 9 8 3
a 9 18 7
a 18 9 7
a 10 19 1
a 19 10 1
a 10 11 10
a 11 10 10
a 11 20 3
a 20 11 3
a 11 12 10
a 12 11 10
a 12 21 1
a 21 12 1
a 12 13 5
a 13 12 5
a 13 22 1
a 22 13 1
a 13 14 9
a 14 13 9
a 14 23 4
a 23 14 4
a 14 15 8
a 15 14 8
a 15 24 7
a 24 15 7
a 15 16 3
a 16 15 3
a 16 25 9
a 25 16 9
a 16 17 1
a 17 16 1
a 17 26 9
a 26 17 9
a 17 18 7
a 18 17 7
a 18 27 2
a 27 18 2
a 19 28 2
a 28 19 2
a 19 20 5
a 20 19 5
a 20 29 5
a 29 20 5
a 20 21 4
a 21 20 4
a 21 30 5
a 30 21 5
a 21 22 6
a 22 21 6
a 22 31 9
a 31 22 9
a 22 23 1
a 23 22 1
a 23 32 6
a 32 23 6
a 23 24 6
a 24 23 6
a 24 33 3
a 33 24 3
a 24 25 6
a 25 24 6
a 25 34 8
a 34 25 8
a 25 26 7
a 26 25 7
a 26 35 5
a 35 26 5
a 26 27 3
a 27 26 3
a 27 36 9
a 36 27 9
a 28 37 3
a 37 28 3
a 28 29 3
a 29 28 3
a 29 38 9
a 38 29 9
a 29 30 10
a 30 29 10
a 30 39 1
a 39 30 1
a 30 31 9
a 31 30 9
a 31 40 9
a 40 31 9
a 31 32 8
a 32 31 8
a 32 41 7
a 41 32 7
a 32 33 7
a 33 32 7
a 33 42 1
a 42 33 1
a 33 34 10
a 34 33 10
a 34 43 2
a 43 34 2
a 34 35 5
a 35 34 5
a 35 44 8
a 44 35 8
a 35 36 6
a 36 35 6
a 36 45 9
a 45 36 9
a 37 46 7
a 46 37 7
a 37 38 7
a 38 37 7
a 38 47 7
a 47 38 7
a 38 39 2
a 39 38 2
a 39 48 1
a 48 39 1
a 39 40 3
a 40 39 3
a 40 49 9
a 49 40 9
a 40 41 1
a 41 40 1
a 41 50 4
a 50 41 4
a 41 42 9
a 42 41 9
a 42 51 8
a 51 42 8
a 42 43 3
a 43 42 3
a 43 52 7
a 52 43 7
a 43 44 8
a 44 43 8
a 44 53 9
a 53 44 9
a 44 45 2
a 45 44 2
a 45 54 5
a 54 45 5
a 46 55 5
a 55 46 5
a 46 47 9
a 47 46 9
a 47 56 5
a 56 47 5
a 47 48 9
a 48 47 9
a 48 57 4
a 57 48 4
a 48 49 4
a 49 48 4
a 49 58 5
a 58 49 5
a 49 50 2
a 50 49 2
a 50 59 3
a 59 50 3
a 50 51 2
a 51 50 2
a 51 60 10
a 60 51 10
a 51 52 4
a 52 51 4
a 52 61 9
a 61 52 9
a 52 53 10
a 53 52 10
a 53 62 5
a 62 53 5
a 53 54 6
a 54 53 6
a 54 63 9
a 63 54 9
a 55 64 5
a 64 55 5
a 55 56 6
a 56 55 6
a 56 65 4
a 65 56 4
a 56 57 8
a 57 56 8
a 57 66 6
a 66 57 6
a 57 58 5
a 58 57 5
a 58 67 4
a 67 58 4
a 58 59 9
a 59 58 9
a 59 68 5
a 68 59 5
a 59 60 7
a 60 59 7
a 60 69 4
a 69 60 4
a 60 61 5
a 61 60 5
a 61 70 1
a 70 61 1
a 61 62 2
a 62 61 2
a 62 71 4
a 71 62 4
a 62 63 1
a 63 62 1
a 63 72 6
a 72 63 6
a 64 73 7
a 73 64 7
a 64 65 5
a 65 64 5
a 65 74 10
a 74 65 10
a 65 66 4
a 66 65 4
a 66 75 7
a 75 66 7
a 66 67 7
a 67 66 7
a 67 76 8
a 76 67 8
a 67 68 3
a 68 67 3
a 68 77 5
a 77 68 5
a 68 69 2
a 69 68 2
a 69 78 4
a 78 69 4
a 69 70 4
a 70 69 4
a 70 79 1
a 79 70 1
a 70 71 3
a 71 70 3
a 71 80 5
a 80 71 5
a 71 72 3
a 72 71 3
a 72 81 3
a 81 72 3
a 73 74 4
a 74 73 4
a 74 75 10
a 75 74 10
a 75 76 2
a 76 75 2
a 76 77 2
a 77 76 2
a 77 78 5
a 78 77 5
a 78 79 10
a 79 78 10
a 79 80 7
a 80 79 7
a 80 81 10
a 81 80 10
